c Generated map
c Size: 9 * 9, weights in range: 1 to 10, walls: True, with ratio 0.1
c dim 3 of 8
c
p sp 81 118
c graph contains 81 nodes and 118 arcs
c
a 1 10 6
a 10 1 6
a 1 2 4
a 2 1 4
a 2 11 9
a 11 2 9
a 2 3 1
a 3 2 1
a 3 12 10
a 12 3 10
a 3 4 1
a 4 3 1
a 4 13 1
a 13 4 1
a 4 5 5
a 5 4 5
a 5 14 10
a 14 5 10
a 7 16 7
a 16 7 7
a 7 8 3
a 8 7 3
a 8 17 2
a 17 8 2
a 8 9 7
a 9 8 7
a 10 19 9
a 19 10 9
a 10 11 4
a 11 10 4
a 11 20 3
a 20 11 3
a 11 12 7
a 12 11 7
a 12 21 3
a 21 12 3
a 12 13 3
a 13 12 3
a 13 22 10
a 22 13 10
a 13 14 7
a 14 13 7
a 14 23 4
a 23 14 4
a 14 15 5
a 15 14 5
a 15 24 6
a 24 15 6
a 15 16 5
a 16 15 5
a 16 25 10
a 25 16 10
a 16 17 10
a 17 16 10
a 17 26 8
a 26 17 8
a 19 28 4
a 28 19 4
a 19 20 7
a 20 19 7
a 20 29 10
a 29 20 10
a 20 21 7
a 21 20 7
a 21 30 5
a 30 21 5
a 21 22 1
a 22 21 1
a 22 31 10
a 31 22 10
a 22 23 5
a 23 22 5
a 23 32 6
a 32 23 6
a 23 24 5
a 24 23 5
a 24 25 4
a 25 24 4
a 25 34 1
a 34 25 1
a 25 26 10
a 26 25 10
a 26 35 9
a 35 26 9
a 26 27 5
a 27 26 5
a 27 36 5
a 36 27 5
a 28 37 5
a 37 28 5
a 28 29 10
a 29 28 10
a 29 38 2
a 38 29 2
a 29 30 5
a 30 29 5
a 30 39 5
a 39 30 5
a 30 31 3
a 31 30 3
a 31 40 5
a 40 31 5
a 31 32 7
a 32 31 7
a 32 41 5
a 41 32 5
a 34 43 6
a 43 34 6
a 34 35 3
a 35 34 3
a 35 44 3
a 44 35 3
a 35 36 6
a 36 35 6
a 36 45 2
a 45 36 2
a 37 46 4
a 46 37 4
a 37 38 9
a 38 37 9
a 38 47 10
a 47 38 10
a 38 39 10
a 39 38 10
a 39 48 9
a 48 39 9
a 39 40 3
a 40 39 3
a 40 49 6
a 49 40 6
a 40 41 10
a 41 40 10
a 41 50 5
a 50 41 5
a 41 42 9
a 42 41 9
a 42 43 9
a 43 42 9
a 43 52 9
a 52 43 9
a 43 44 7
a 44 43 7
a 44 53 5
a 53 44 5
a 44 45 5
a 45 44 5
a 45 54 2
a 54 45 2
a 46 55 3
a 55 46 3
a 46 47 8
a 47 46 8
a 47 56 4
a 56 47 4
a 47 48 8
a 48 47 8
a 48 57 9
a 57 48 9
a 48 49 3
a 49 48 3
a 49 58 1
a 58 49 1
a 49 50 6
a 50 49 6
a 50 59 8
a 59 50 8
a 52 61 9
a 61 52 9
a 52 53 5
a 53 52 5
a 53 62 5
a 62 53 5
a 53 54 8
a 54 53 8
a 54 63 5
a 63 54 5
a 55 64 5
a 64 55 5
a 55 56 4
a 56 55 4
a 56 65 2
a 65 56 2
a 56 57 7
a 57 56 7
a 57 66 10
a 66 57 10
a 57 58 3
a 58 57 3
a 58 67 2
a 67 58 2
a 58 59 2
a 59 58 2
a 59 68 5
a 68 59 5
a 59 60 1
a 60 59 1
a 60 69 9
a 69 60 9
a 60 61 7
a 61 60 7
a 61 70 9
a 70 61 9
a 61 62 10
a 62 61 10
a 62 63 9
a 63 62 9
a 63 72 5
a 72 63 5
a 64 73 10
a 73 64 10
a 64 65 7
a 65 64 7
a 65 66 6
a 66 65 6
a 66 75 6
a 75 66 6
a 66 67 3
a 67 66 3
a 67 76 5
a 76 67 5
a 67 68 9
a 68 67 9
a 68 77 9
a 77 68 9
a 68 69 4
a 69 68 4
a 69 70 5
a 70 69 5
a 72 81 9
a 81 72 9
a 75 76 5
a 76 75 5
a 76 77 1
a 77 76 1
a 80 81 10
a 81 80 10
